g3 0 1 0	# problem power
 1000 0 1 0 0	# vars, constraints, objectives, ranges, eqns
 0 1	# nonlinear constraints, objectives
 0 0	# network constraints: nonlinear, linear
 0 1000 0	# nonlinear vars in constraints, objectives, both
 0 0 0 1	# linear network variables; functions; arith, flags
 0 0 0 0 0	# discrete variables: binary, integer, nonlinear (b,c,o)
 0 1000	# nonzeros in Jacobian, gradients
 0 0	# max name lengths: constraints, variables
 0 0 0 0 0	# common exprs: b,c,o,c1,o1
b
3
3
3
3
3
3
3
3
3
3
3
3
3
3
3
3
3
3
3
3
3
3
3
3
3
3
3
3
3
3
3
3
3
3
3
3
3
3
3
3
3
3
3
3
3
3
3
3
3
3
3
3
3
3
3
3
3
3
3
3
3
3
3
3
3
3
3
3
3
3
3
3
3
3
3
3
3
3
3
3
3
3
3
3
3
3
3
3
3
3
3
3
3
3
3
3
3
3
3
3
3
3
3
3
3
3
3
3
3
3
3
3
3
3
3
3
3
3
3
3
3
3
3
3
3
3
3
3
3
3
3
3
3
3
3
3
3
3
3
3
3
3
3
3
3
3
3
3
3
3
3
3
3
3
3
3
3
3
3
3
3
3
3
3
3
3
3
3
3
3
3
3
3
3
3
3
3
3
3
3
3
3
3
3
3
3
3
3
3
3
3
3
3
3
3
3
3
3
3
3
3
3
3
3
3
3
3
3
3
3
3
3
3
3
3
3
3
3
3
3
3
3
3
3
3
3
3
3
3
3
3
3
3
3
3
3
3
3
3
3
3
3
3
3
3
3
3
3
3
3
3
3
3
3
3
3
3
3
3
3
3
3
3
3
3
3
3
3
3
3
3
3
3
3
3
3
3
3
3
3
3
3
3
3
3
3
3
3
3
3
3
3
3
3
3
3
3
3
3
3
3
3
3
3
3
3
3
3
3
3
3
3
3
3
3
3
3
3
3
3
3
3
3
3
3
3
3
3
3
3
3
3
3
3
3
3
3
3
3
3
3
3
3
3
3
3
3
3
3
3
3
3
3
3
3
3
3
3
3
3
3
3
3
3
3
3
3
3
3
3
3
3
3
3
3
3
3
3
3
3
3
3
3
3
3
3
3
3
3
3
3
3
3
3
3
3
3
3
3
3
3
3
3
3
3
3
3
3
3
3
3
3
3
3
3
3
3
3
3
3
3
3
3
3
3
3
3
3
3
3
3
3
3
3
3
3
3
3
3
3
3
3
3
3
3
3
3
3
3
3
3
3
3
3
3
3
3
3
3
3
3
3
3
3
3
3
3
3
3
3
3
3
3
3
3
3
3
3
3
3
3
3
3
3
3
3
3
3
3
3
3
3
3
3
3
3
3
3
3
3
3
3
3
3
3
3
3
3
3
3
3
3
3
3
3
3
3
3
3
3
3
3
3
3
3
3
3
3
3
3
3
3
3
3
3
3
3
3
3
3
3
3
3
3
3
3
3
3
3
3
3
3
3
3
3
3
3
3
3
3
3
3
3
3
3
3
3
3
3
3
3
3
3
3
3
3
3
3
3
3
3
3
3
3
3
3
3
3
3
3
3
3
3
3
3
3
3
3
3
3
3
3
3
3
3
3
3
3
3
3
3
3
3
3
3
3
3
3
3
3
3
3
3
3
3
3
3
3
3
3
3
3
3
3
3
3
3
3
3
3
3
3
3
3
3
3
3
3
3
3
3
3
3
3
3
3
3
3
3
3
3
3
3
3
3
3
3
3
3
3
3
3
3
3
3
3
3
3
3
3
3
3
3
3
3
3
3
3
3
3
3
3
3
3
3
3
3
3
3
3
3
3
3
3
3
3
3
3
3
3
3
3
3
3
3
3
3
3
3
3
3
3
3
3
3
3
3
3
3
3
3
3
3
3
3
3
3
3
3
3
3
3
3
3
3
3
3
3
3
3
3
3
3
3
3
3
3
3
3
3
3
3
3
3
3
3
3
3
3
3
3
3
3
3
3
3
3
3
3
3
3
3
3
3
3
3
3
3
3
3
3
3
3
3
3
3
3
3
3
3
3
3
3
3
3
3
3
3
3
3
3
3
3
3
3
3
3
3
3
3
3
3
3
3
3
3
3
3
3
3
3
3
3
3
3
3
3
3
3
3
3
3
3
3
3
3
3
3
3
3
3
3
3
3
3
3
3
3
3
3
3
3
3
3
3
3
3
3
3
3
3
3
3
3
3
3
3
3
3
3
3
3
3
3
3
3
3
3
3
3
3
3
3
3
3
3
3
3
3
3
3
3
3
3
3
3
3
3
3
3
3
3
3
3
3
3
3
3
3
3
3
3
3
3
3
3
3
3
3
3
3
3
3
3
3
3
3
3
3
3
3
3
3
3
3
3
3
3
3
3
3
3
3
3
3
3
3
3
3
3
3
3
3
3
3
3
3
3
3
3
3
3
3
3
3
3
3
3
3
3
3
3
3
3
3
3
3
3
3
3
3
3
3
3
3
3
3
3
3
3
x1000
0 1
1 1
2 1
3 1
4 1
5 1
6 1
7 1
8 1
9 1
10 1
11 1
12 1
13 1
14 1
15 1
16 1
17 1
18 1
19 1
20 1
21 1
22 1
23 1
24 1
25 1
26 1
27 1
28 1
29 1
30 1
31 1
32 1
33 1
34 1
35 1
36 1
37 1
38 1
39 1
40 1
41 1
42 1
43 1
44 1
45 1
46 1
47 1
48 1
49 1
50 1
51 1
52 1
53 1
54 1
55 1
56 1
57 1
58 1
59 1
60 1
61 1
62 1
63 1
64 1
65 1
66 1
67 1
68 1
69 1
70 1
71 1
72 1
73 1
74 1
75 1
76 1
77 1
78 1
79 1
80 1
81 1
82 1
83 1
84 1
85 1
86 1
87 1
88 1
89 1
90 1
91 1
92 1
93 1
94 1
95 1
96 1
97 1
98 1
99 1
100 1
101 1
102 1
103 1
104 1
105 1
106 1
107 1
108 1
109 1
110 1
111 1
112 1
113 1
114 1
115 1
116 1
117 1
118 1
119 1
120 1
121 1
122 1
123 1
124 1
125 1
126 1
127 1
128 1
129 1
130 1
131 1
132 1
133 1
134 1
135 1
136 1
137 1
138 1
139 1
140 1
141 1
142 1
143 1
144 1
145 1
146 1
147 1
148 1
149 1
150 1
151 1
152 1
153 1
154 1
155 1
156 1
157 1
158 1
159 1
160 1
161 1
162 1
163 1
164 1
165 1
166 1
167 1
168 1
169 1
170 1
171 1
172 1
173 1
174 1
175 1
176 1
177 1
178 1
179 1
180 1
181 1
182 1
183 1
184 1
185 1
186 1
187 1
188 1
189 1
190 1
191 1
192 1
193 1
194 1
195 1
196 1
197 1
198 1
199 1
200 1
201 1
202 1
203 1
204 1
205 1
206 1
207 1
208 1
209 1
210 1
211 1
212 1
213 1
214 1
215 1
216 1
217 1
218 1
219 1
220 1
221 1
222 1
223 1
224 1
225 1
226 1
227 1
228 1
229 1
230 1
231 1
232 1
233 1
234 1
235 1
236 1
237 1
238 1
239 1
240 1
241 1
242 1
243 1
244 1
245 1
246 1
247 1
248 1
249 1
250 1
251 1
252 1
253 1
254 1
255 1
256 1
257 1
258 1
259 1
260 1
261 1
262 1
263 1
264 1
265 1
266 1
267 1
268 1
269 1
270 1
271 1
272 1
273 1
274 1
275 1
276 1
277 1
278 1
279 1
280 1
281 1
282 1
283 1
284 1
285 1
286 1
287 1
288 1
289 1
290 1
291 1
292 1
293 1
294 1
295 1
296 1
297 1
298 1
299 1
300 1
301 1
302 1
303 1
304 1
305 1
306 1
307 1
308 1
309 1
310 1
311 1
312 1
313 1
314 1
315 1
316 1
317 1
318 1
319 1
320 1
321 1
322 1
323 1
324 1
325 1
326 1
327 1
328 1
329 1
330 1
331 1
332 1
333 1
334 1
335 1
336 1
337 1
338 1
339 1
340 1
341 1
342 1
343 1
344 1
345 1
346 1
347 1
348 1
349 1
350 1
351 1
352 1
353 1
354 1
355 1
356 1
357 1
358 1
359 1
360 1
361 1
362 1
363 1
364 1
365 1
366 1
367 1
368 1
369 1
370 1
371 1
372 1
373 1
374 1
375 1
376 1
377 1
378 1
379 1
380 1
381 1
382 1
383 1
384 1
385 1
386 1
387 1
388 1
389 1
390 1
391 1
392 1
393 1
394 1
395 1
396 1
397 1
398 1
399 1
400 1
401 1
402 1
403 1
404 1
405 1
406 1
407 1
408 1
409 1
410 1
411 1
412 1
413 1
414 1
415 1
416 1
417 1
418 1
419 1
420 1
421 1
422 1
423 1
424 1
425 1
426 1
427 1
428 1
429 1
430 1
431 1
432 1
433 1
434 1
435 1
436 1
437 1
438 1
439 1
440 1
441 1
442 1
443 1
444 1
445 1
446 1
447 1
448 1
449 1
450 1
451 1
452 1
453 1
454 1
455 1
456 1
457 1
458 1
459 1
460 1
461 1
462 1
463 1
464 1
465 1
466 1
467 1
468 1
469 1
470 1
471 1
472 1
473 1
474 1
475 1
476 1
477 1
478 1
479 1
480 1
481 1
482 1
483 1
484 1
485 1
486 1
487 1
488 1
489 1
490 1
491 1
492 1
493 1
494 1
495 1
496 1
497 1
498 1
499 1
500 1
501 1
502 1
503 1
504 1
505 1
506 1
507 1
508 1
509 1
510 1
511 1
512 1
513 1
514 1
515 1
516 1
517 1
518 1
519 1
520 1
521 1
522 1
523 1
524 1
525 1
526 1
527 1
528 1
529 1
530 1
531 1
532 1
533 1
534 1
535 1
536 1
537 1
538 1
539 1
540 1
541 1
542 1
543 1
544 1
545 1
546 1
547 1
548 1
549 1
550 1
551 1
552 1
553 1
554 1
555 1
556 1
557 1
558 1
559 1
560 1
561 1
562 1
563 1
564 1
565 1
566 1
567 1
568 1
569 1
570 1
571 1
572 1
573 1
574 1
575 1
576 1
577 1
578 1
579 1
580 1
581 1
582 1
583 1
584 1
585 1
586 1
587 1
588 1
589 1
590 1
591 1
592 1
593 1
594 1
595 1
596 1
597 1
598 1
599 1
600 1
601 1
602 1
603 1
604 1
605 1
606 1
607 1
608 1
609 1
610 1
611 1
612 1
613 1
614 1
615 1
616 1
617 1
618 1
619 1
620 1
621 1
622 1
623 1
624 1
625 1
626 1
627 1
628 1
629 1
630 1
631 1
632 1
633 1
634 1
635 1
636 1
637 1
638 1
639 1
640 1
641 1
642 1
643 1
644 1
645 1
646 1
647 1
648 1
649 1
650 1
651 1
652 1
653 1
654 1
655 1
656 1
657 1
658 1
659 1
660 1
661 1
662 1
663 1
664 1
665 1
666 1
667 1
668 1
669 1
670 1
671 1
672 1
673 1
674 1
675 1
676 1
677 1
678 1
679 1
680 1
681 1
682 1
683 1
684 1
685 1
686 1
687 1
688 1
689 1
690 1
691 1
692 1
693 1
694 1
695 1
696 1
697 1
698 1
699 1
700 1
701 1
702 1
703 1
704 1
705 1
706 1
707 1
708 1
709 1
710 1
711 1
712 1
713 1
714 1
715 1
716 1
717 1
718 1
719 1
720 1
721 1
722 1
723 1
724 1
725 1
726 1
727 1
728 1
729 1
730 1
731 1
732 1
733 1
734 1
735 1
736 1
737 1
738 1
739 1
740 1
741 1
742 1
743 1
744 1
745 1
746 1
747 1
748 1
749 1
750 1
751 1
752 1
753 1
754 1
755 1
756 1
757 1
758 1
759 1
760 1
761 1
762 1
763 1
764 1
765 1
766 1
767 1
768 1
769 1
770 1
771 1
772 1
773 1
774 1
775 1
776 1
777 1
778 1
779 1
780 1
781 1
782 1
783 1
784 1
785 1
786 1
787 1
788 1
789 1
790 1
791 1
792 1
793 1
794 1
795 1
796 1
797 1
798 1
799 1
800 1
801 1
802 1
803 1
804 1
805 1
806 1
807 1
808 1
809 1
810 1
811 1
812 1
813 1
814 1
815 1
816 1
817 1
818 1
819 1
820 1
821 1
822 1
823 1
824 1
825 1
826 1
827 1
828 1
829 1
830 1
831 1
832 1
833 1
834 1
835 1
836 1
837 1
838 1
839 1
840 1
841 1
842 1
843 1
844 1
845 1
846 1
847 1
848 1
849 1
850 1
851 1
852 1
853 1
854 1
855 1
856 1
857 1
858 1
859 1
860 1
861 1
862 1
863 1
864 1
865 1
866 1
867 1
868 1
869 1
870 1
871 1
872 1
873 1
874 1
875 1
876 1
877 1
878 1
879 1
880 1
881 1
882 1
883 1
884 1
885 1
886 1
887 1
888 1
889 1
890 1
891 1
892 1
893 1
894 1
895 1
896 1
897 1
898 1
899 1
900 1
901 1
902 1
903 1
904 1
905 1
906 1
907 1
908 1
909 1
910 1
911 1
912 1
913 1
914 1
915 1
916 1
917 1
918 1
919 1
920 1
921 1
922 1
923 1
924 1
925 1
926 1
927 1
928 1
929 1
930 1
931 1
932 1
933 1
934 1
935 1
936 1
937 1
938 1
939 1
940 1
941 1
942 1
943 1
944 1
945 1
946 1
947 1
948 1
949 1
950 1
951 1
952 1
953 1
954 1
955 1
956 1
957 1
958 1
959 1
960 1
961 1
962 1
963 1
964 1
965 1
966 1
967 1
968 1
969 1
970 1
971 1
972 1
973 1
974 1
975 1
976 1
977 1
978 1
979 1
980 1
981 1
982 1
983 1
984 1
985 1
986 1
987 1
988 1
989 1
990 1
991 1
992 1
993 1
994 1
995 1
996 1
997 1
998 1
999 1
O0 0
o54
1000
o5
v0
n2
o5
o2
n2
v1
n2
o5
o2
n3
v2
n2
o5
o2
n4
v3
n2
o5
o2
n5
v4
n2
o5
o2
n6
v5
n2
o5
o2
n7
v6
n2
o5
o2
n8
v7
n2
o5
o2
n9
v8
n2
o5
o2
n10
v9
n2
o5
o2
n11
v10
n2
o5
o2
n12
v11
n2
o5
o2
n13
v12
n2
o5
o2
n14
v13
n2
o5
o2
n15
v14
n2
o5
o2
n16
v15
n2
o5
o2
n17
v16
n2
o5
o2
n18
v17
n2
o5
o2
n19
v18
n2
o5
o2
n20
v19
n2
o5
o2
n21
v20
n2
o5
o2
n22
v21
n2
o5
o2
n23
v22
n2
o5
o2
n24
v23
n2
o5
o2
n25
v24
n2
o5
o2
n26
v25
n2
o5
o2
n27
v26
n2
o5
o2
n28
v27
n2
o5
o2
n29
v28
n2
o5
o2
n30
v29
n2
o5
o2
n31
v30
n2
o5
o2
n32
v31
n2
o5
o2
n33
v32
n2
o5
o2
n34
v33
n2
o5
o2
n35
v34
n2
o5
o2
n36
v35
n2
o5
o2
n37
v36
n2
o5
o2
n38
v37
n2
o5
o2
n39
v38
n2
o5
o2
n40
v39
n2
o5
o2
n41
v40
n2
o5
o2
n42
v41
n2
o5
o2
n43
v42
n2
o5
o2
n44
v43
n2
o5
o2
n45
v44
n2
o5
o2
n46
v45
n2
o5
o2
n47
v46
n2
o5
o2
n48
v47
n2
o5
o2
n49
v48
n2
o5
o2
n50
v49
n2
o5
o2
n51
v50
n2
o5
o2
n52
v51
n2
o5
o2
n53
v52
n2
o5
o2
n54
v53
n2
o5
o2
n55
v54
n2
o5
o2
n56
v55
n2
o5
o2
n57
v56
n2
o5
o2
n58
v57
n2
o5
o2
n59
v58
n2
o5
o2
n60
v59
n2
o5
o2
n61
v60
n2
o5
o2
n62
v61
n2
o5
o2
n63
v62
n2
o5
o2
n64
v63
n2
o5
o2
n65
v64
n2
o5
o2
n66
v65
n2
o5
o2
n67
v66
n2
o5
o2
n68
v67
n2
o5
o2
n69
v68
n2
o5
o2
n70
v69
n2
o5
o2
n71
v70
n2
o5
o2
n72
v71
n2
o5
o2
n73
v72
n2
o5
o2
n74
v73
n2
o5
o2
n75
v74
n2
o5
o2
n76
v75
n2
o5
o2
n77
v76
n2
o5
o2
n78
v77
n2
o5
o2
n79
v78
n2
o5
o2
n80
v79
n2
o5
o2
n81
v80
n2
o5
o2
n82
v81
n2
o5
o2
n83
v82
n2
o5
o2
n84
v83
n2
o5
o2
n85
v84
n2
o5
o2
n86
v85
n2
o5
o2
n87
v86
n2
o5
o2
n88
v87
n2
o5
o2
n89
v88
n2
o5
o2
n90
v89
n2
o5
o2
n91
v90
n2
o5
o2
n92
v91
n2
o5
o2
n93
v92
n2
o5
o2
n94
v93
n2
o5
o2
n95
v94
n2
o5
o2
n96
v95
n2
o5
o2
n97
v96
n2
o5
o2
n98
v97
n2
o5
o2
n99
v98
n2
o5
o2
n100
v99
n2
o5
o2
n101
v100
n2
o5
o2
n102
v101
n2
o5
o2
n103
v102
n2
o5
o2
n104
v103
n2
o5
o2
n105
v104
n2
o5
o2
n106
v105
n2
o5
o2
n107
v106
n2
o5
o2
n108
v107
n2
o5
o2
n109
v108
n2
o5
o2
n110
v109
n2
o5
o2
n111
v110
n2
o5
o2
n112
v111
n2
o5
o2
n113
v112
n2
o5
o2
n114
v113
n2
o5
o2
n115
v114
n2
o5
o2
n116
v115
n2
o5
o2
n117
v116
n2
o5
o2
n118
v117
n2
o5
o2
n119
v118
n2
o5
o2
n120
v119
n2
o5
o2
n121
v120
n2
o5
o2
n122
v121
n2
o5
o2
n123
v122
n2
o5
o2
n124
v123
n2
o5
o2
n125
v124
n2
o5
o2
n126
v125
n2
o5
o2
n127
v126
n2
o5
o2
n128
v127
n2
o5
o2
n129
v128
n2
o5
o2
n130
v129
n2
o5
o2
n131
v130
n2
o5
o2
n132
v131
n2
o5
o2
n133
v132
n2
o5
o2
n134
v133
n2
o5
o2
n135
v134
n2
o5
o2
n136
v135
n2
o5
o2
n137
v136
n2
o5
o2
n138
v137
n2
o5
o2
n139
v138
n2
o5
o2
n140
v139
n2
o5
o2
n141
v140
n2
o5
o2
n142
v141
n2
o5
o2
n143
v142
n2
o5
o2
n144
v143
n2
o5
o2
n145
v144
n2
o5
o2
n146
v145
n2
o5
o2
n147
v146
n2
o5
o2
n148
v147
n2
o5
o2
n149
v148
n2
o5
o2
n150
v149
n2
o5
o2
n151
v150
n2
o5
o2
n152
v151
n2
o5
o2
n153
v152
n2
o5
o2
n154
v153
n2
o5
o2
n155
v154
n2
o5
o2
n156
v155
n2
o5
o2
n157
v156
n2
o5
o2
n158
v157
n2
o5
o2
n159
v158
n2
o5
o2
n160
v159
n2
o5
o2
n161
v160
n2
o5
o2
n162
v161
n2
o5
o2
n163
v162
n2
o5
o2
n164
v163
n2
o5
o2
n165
v164
n2
o5
o2
n166
v165
n2
o5
o2
n167
v166
n2
o5
o2
n168
v167
n2
o5
o2
n169
v168
n2
o5
o2
n170
v169
n2
o5
o2
n171
v170
n2
o5
o2
n172
v171
n2
o5
o2
n173
v172
n2
o5
o2
n174
v173
n2
o5
o2
n175
v174
n2
o5
o2
n176
v175
n2
o5
o2
n177
v176
n2
o5
o2
n178
v177
n2
o5
o2
n179
v178
n2
o5
o2
n180
v179
n2
o5
o2
n181
v180
n2
o5
o2
n182
v181
n2
o5
o2
n183
v182
n2
o5
o2
n184
v183
n2
o5
o2
n185
v184
n2
o5
o2
n186
v185
n2
o5
o2
n187
v186
n2
o5
o2
n188
v187
n2
o5
o2
n189
v188
n2
o5
o2
n190
v189
n2
o5
o2
n191
v190
n2
o5
o2
n192
v191
n2
o5
o2
n193
v192
n2
o5
o2
n194
v193
n2
o5
o2
n195
v194
n2
o5
o2
n196
v195
n2
o5
o2
n197
v196
n2
o5
o2
n198
v197
n2
o5
o2
n199
v198
n2
o5
o2
n200
v199
n2
o5
o2
n201
v200
n2
o5
o2
n202
v201
n2
o5
o2
n203
v202
n2
o5
o2
n204
v203
n2
o5
o2
n205
v204
n2
o5
o2
n206
v205
n2
o5
o2
n207
v206
n2
o5
o2
n208
v207
n2
o5
o2
n209
v208
n2
o5
o2
n210
v209
n2
o5
o2
n211
v210
n2
o5
o2
n212
v211
n2
o5
o2
n213
v212
n2
o5
o2
n214
v213
n2
o5
o2
n215
v214
n2
o5
o2
n216
v215
n2
o5
o2
n217
v216
n2
o5
o2
n218
v217
n2
o5
o2
n219
v218
n2
o5
o2
n220
v219
n2
o5
o2
n221
v220
n2
o5
o2
n222
v221
n2
o5
o2
n223
v222
n2
o5
o2
n224
v223
n2
o5
o2
n225
v224
n2
o5
o2
n226
v225
n2
o5
o2
n227
v226
n2
o5
o2
n228
v227
n2
o5
o2
n229
v228
n2
o5
o2
n230
v229
n2
o5
o2
n231
v230
n2
o5
o2
n232
v231
n2
o5
o2
n233
v232
n2
o5
o2
n234
v233
n2
o5
o2
n235
v234
n2
o5
o2
n236
v235
n2
o5
o2
n237
v236
n2
o5
o2
n238
v237
n2
o5
o2
n239
v238
n2
o5
o2
n240
v239
n2
o5
o2
n241
v240
n2
o5
o2
n242
v241
n2
o5
o2
n243
v242
n2
o5
o2
n244
v243
n2
o5
o2
n245
v244
n2
o5
o2
n246
v245
n2
o5
o2
n247
v246
n2
o5
o2
n248
v247
n2
o5
o2
n249
v248
n2
o5
o2
n250
v249
n2
o5
o2
n251
v250
n2
o5
o2
n252
v251
n2
o5
o2
n253
v252
n2
o5
o2
n254
v253
n2
o5
o2
n255
v254
n2
o5
o2
n256
v255
n2
o5
o2
n257
v256
n2
o5
o2
n258
v257
n2
o5
o2
n259
v258
n2
o5
o2
n260
v259
n2
o5
o2
n261
v260
n2
o5
o2
n262
v261
n2
o5
o2
n263
v262
n2
o5
o2
n264
v263
n2
o5
o2
n265
v264
n2
o5
o2
n266
v265
n2
o5
o2
n267
v266
n2
o5
o2
n268
v267
n2
o5
o2
n269
v268
n2
o5
o2
n270
v269
n2
o5
o2
n271
v270
n2
o5
o2
n272
v271
n2
o5
o2
n273
v272
n2
o5
o2
n274
v273
n2
o5
o2
n275
v274
n2
o5
o2
n276
v275
n2
o5
o2
n277
v276
n2
o5
o2
n278
v277
n2
o5
o2
n279
v278
n2
o5
o2
n280
v279
n2
o5
o2
n281
v280
n2
o5
o2
n282
v281
n2
o5
o2
n283
v282
n2
o5
o2
n284
v283
n2
o5
o2
n285
v284
n2
o5
o2
n286
v285
n2
o5
o2
n287
v286
n2
o5
o2
n288
v287
n2
o5
o2
n289
v288
n2
o5
o2
n290
v289
n2
o5
o2
n291
v290
n2
o5
o2
n292
v291
n2
o5
o2
n293
v292
n2
o5
o2
n294
v293
n2
o5
o2
n295
v294
n2
o5
o2
n296
v295
n2
o5
o2
n297
v296
n2
o5
o2
n298
v297
n2
o5
o2
n299
v298
n2
o5
o2
n300
v299
n2
o5
o2
n301
v300
n2
o5
o2
n302
v301
n2
o5
o2
n303
v302
n2
o5
o2
n304
v303
n2
o5
o2
n305
v304
n2
o5
o2
n306
v305
n2
o5
o2
n307
v306
n2
o5
o2
n308
v307
n2
o5
o2
n309
v308
n2
o5
o2
n310
v309
n2
o5
o2
n311
v310
n2
o5
o2
n312
v311
n2
o5
o2
n313
v312
n2
o5
o2
n314
v313
n2
o5
o2
n315
v314
n2
o5
o2
n316
v315
n2
o5
o2
n317
v316
n2
o5
o2
n318
v317
n2
o5
o2
n319
v318
n2
o5
o2
n320
v319
n2
o5
o2
n321
v320
n2
o5
o2
n322
v321
n2
o5
o2
n323
v322
n2
o5
o2
n324
v323
n2
o5
o2
n325
v324
n2
o5
o2
n326
v325
n2
o5
o2
n327
v326
n2
o5
o2
n328
v327
n2
o5
o2
n329
v328
n2
o5
o2
n330
v329
n2
o5
o2
n331
v330
n2
o5
o2
n332
v331
n2
o5
o2
n333
v332
n2
o5
o2
n334
v333
n2
o5
o2
n335
v334
n2
o5
o2
n336
v335
n2
o5
o2
n337
v336
n2
o5
o2
n338
v337
n2
o5
o2
n339
v338
n2
o5
o2
n340
v339
n2
o5
o2
n341
v340
n2
o5
o2
n342
v341
n2
o5
o2
n343
v342
n2
o5
o2
n344
v343
n2
o5
o2
n345
v344
n2
o5
o2
n346
v345
n2
o5
o2
n347
v346
n2
o5
o2
n348
v347
n2
o5
o2
n349
v348
n2
o5
o2
n350
v349
n2
o5
o2
n351
v350
n2
o5
o2
n352
v351
n2
o5
o2
n353
v352
n2
o5
o2
n354
v353
n2
o5
o2
n355
v354
n2
o5
o2
n356
v355
n2
o5
o2
n357
v356
n2
o5
o2
n358
v357
n2
o5
o2
n359
v358
n2
o5
o2
n360
v359
n2
o5
o2
n361
v360
n2
o5
o2
n362
v361
n2
o5
o2
n363
v362
n2
o5
o2
n364
v363
n2
o5
o2
n365
v364
n2
o5
o2
n366
v365
n2
o5
o2
n367
v366
n2
o5
o2
n368
v367
n2
o5
o2
n369
v368
n2
o5
o2
n370
v369
n2
o5
o2
n371
v370
n2
o5
o2
n372
v371
n2
o5
o2
n373
v372
n2
o5
o2
n374
v373
n2
o5
o2
n375
v374
n2
o5
o2
n376
v375
n2
o5
o2
n377
v376
n2
o5
o2
n378
v377
n2
o5
o2
n379
v378
n2
o5
o2
n380
v379
n2
o5
o2
n381
v380
n2
o5
o2
n382
v381
n2
o5
o2
n383
v382
n2
o5
o2
n384
v383
n2
o5
o2
n385
v384
n2
o5
o2
n386
v385
n2
o5
o2
n387
v386
n2
o5
o2
n388
v387
n2
o5
o2
n389
v388
n2
o5
o2
n390
v389
n2
o5
o2
n391
v390
n2
o5
o2
n392
v391
n2
o5
o2
n393
v392
n2
o5
o2
n394
v393
n2
o5
o2
n395
v394
n2
o5
o2
n396
v395
n2
o5
o2
n397
v396
n2
o5
o2
n398
v397
n2
o5
o2
n399
v398
n2
o5
o2
n400
v399
n2
o5
o2
n401
v400
n2
o5
o2
n402
v401
n2
o5
o2
n403
v402
n2
o5
o2
n404
v403
n2
o5
o2
n405
v404
n2
o5
o2
n406
v405
n2
o5
o2
n407
v406
n2
o5
o2
n408
v407
n2
o5
o2
n409
v408
n2
o5
o2
n410
v409
n2
o5
o2
n411
v410
n2
o5
o2
n412
v411
n2
o5
o2
n413
v412
n2
o5
o2
n414
v413
n2
o5
o2
n415
v414
n2
o5
o2
n416
v415
n2
o5
o2
n417
v416
n2
o5
o2
n418
v417
n2
o5
o2
n419
v418
n2
o5
o2
n420
v419
n2
o5
o2
n421
v420
n2
o5
o2
n422
v421
n2
o5
o2
n423
v422
n2
o5
o2
n424
v423
n2
o5
o2
n425
v424
n2
o5
o2
n426
v425
n2
o5
o2
n427
v426
n2
o5
o2
n428
v427
n2
o5
o2
n429
v428
n2
o5
o2
n430
v429
n2
o5
o2
n431
v430
n2
o5
o2
n432
v431
n2
o5
o2
n433
v432
n2
o5
o2
n434
v433
n2
o5
o2
n435
v434
n2
o5
o2
n436
v435
n2
o5
o2
n437
v436
n2
o5
o2
n438
v437
n2
o5
o2
n439
v438
n2
o5
o2
n440
v439
n2
o5
o2
n441
v440
n2
o5
o2
n442
v441
n2
o5
o2
n443
v442
n2
o5
o2
n444
v443
n2
o5
o2
n445
v444
n2
o5
o2
n446
v445
n2
o5
o2
n447
v446
n2
o5
o2
n448
v447
n2
o5
o2
n449
v448
n2
o5
o2
n450
v449
n2
o5
o2
n451
v450
n2
o5
o2
n452
v451
n2
o5
o2
n453
v452
n2
o5
o2
n454
v453
n2
o5
o2
n455
v454
n2
o5
o2
n456
v455
n2
o5
o2
n457
v456
n2
o5
o2
n458
v457
n2
o5
o2
n459
v458
n2
o5
o2
n460
v459
n2
o5
o2
n461
v460
n2
o5
o2
n462
v461
n2
o5
o2
n463
v462
n2
o5
o2
n464
v463
n2
o5
o2
n465
v464
n2
o5
o2
n466
v465
n2
o5
o2
n467
v466
n2
o5
o2
n468
v467
n2
o5
o2
n469
v468
n2
o5
o2
n470
v469
n2
o5
o2
n471
v470
n2
o5
o2
n472
v471
n2
o5
o2
n473
v472
n2
o5
o2
n474
v473
n2
o5
o2
n475
v474
n2
o5
o2
n476
v475
n2
o5
o2
n477
v476
n2
o5
o2
n478
v477
n2
o5
o2
n479
v478
n2
o5
o2
n480
v479
n2
o5
o2
n481
v480
n2
o5
o2
n482
v481
n2
o5
o2
n483
v482
n2
o5
o2
n484
v483
n2
o5
o2
n485
v484
n2
o5
o2
n486
v485
n2
o5
o2
n487
v486
n2
o5
o2
n488
v487
n2
o5
o2
n489
v488
n2
o5
o2
n490
v489
n2
o5
o2
n491
v490
n2
o5
o2
n492
v491
n2
o5
o2
n493
v492
n2
o5
o2
n494
v493
n2
o5
o2
n495
v494
n2
o5
o2
n496
v495
n2
o5
o2
n497
v496
n2
o5
o2
n498
v497
n2
o5
o2
n499
v498
n2
o5
o2
n500
v499
n2
o5
o2
n501
v500
n2
o5
o2
n502
v501
n2
o5
o2
n503
v502
n2
o5
o2
n504
v503
n2
o5
o2
n505
v504
n2
o5
o2
n506
v505
n2
o5
o2
n507
v506
n2
o5
o2
n508
v507
n2
o5
o2
n509
v508
n2
o5
o2
n510
v509
n2
o5
o2
n511
v510
n2
o5
o2
n512
v511
n2
o5
o2
n513
v512
n2
o5
o2
n514
v513
n2
o5
o2
n515
v514
n2
o5
o2
n516
v515
n2
o5
o2
n517
v516
n2
o5
o2
n518
v517
n2
o5
o2
n519
v518
n2
o5
o2
n520
v519
n2
o5
o2
n521
v520
n2
o5
o2
n522
v521
n2
o5
o2
n523
v522
n2
o5
o2
n524
v523
n2
o5
o2
n525
v524
n2
o5
o2
n526
v525
n2
o5
o2
n527
v526
n2
o5
o2
n528
v527
n2
o5
o2
n529
v528
n2
o5
o2
n530
v529
n2
o5
o2
n531
v530
n2
o5
o2
n532
v531
n2
o5
o2
n533
v532
n2
o5
o2
n534
v533
n2
o5
o2
n535
v534
n2
o5
o2
n536
v535
n2
o5
o2
n537
v536
n2
o5
o2
n538
v537
n2
o5
o2
n539
v538
n2
o5
o2
n540
v539
n2
o5
o2
n541
v540
n2
o5
o2
n542
v541
n2
o5
o2
n543
v542
n2
o5
o2
n544
v543
n2
o5
o2
n545
v544
n2
o5
o2
n546
v545
n2
o5
o2
n547
v546
n2
o5
o2
n548
v547
n2
o5
o2
n549
v548
n2
o5
o2
n550
v549
n2
o5
o2
n551
v550
n2
o5
o2
n552
v551
n2
o5
o2
n553
v552
n2
o5
o2
n554
v553
n2
o5
o2
n555
v554
n2
o5
o2
n556
v555
n2
o5
o2
n557
v556
n2
o5
o2
n558
v557
n2
o5
o2
n559
v558
n2
o5
o2
n560
v559
n2
o5
o2
n561
v560
n2
o5
o2
n562
v561
n2
o5
o2
n563
v562
n2
o5
o2
n564
v563
n2
o5
o2
n565
v564
n2
o5
o2
n566
v565
n2
o5
o2
n567
v566
n2
o5
o2
n568
v567
n2
o5
o2
n569
v568
n2
o5
o2
n570
v569
n2
o5
o2
n571
v570
n2
o5
o2
n572
v571
n2
o5
o2
n573
v572
n2
o5
o2
n574
v573
n2
o5
o2
n575
v574
n2
o5
o2
n576
v575
n2
o5
o2
n577
v576
n2
o5
o2
n578
v577
n2
o5
o2
n579
v578
n2
o5
o2
n580
v579
n2
o5
o2
n581
v580
n2
o5
o2
n582
v581
n2
o5
o2
n583
v582
n2
o5
o2
n584
v583
n2
o5
o2
n585
v584
n2
o5
o2
n586
v585
n2
o5
o2
n587
v586
n2
o5
o2
n588
v587
n2
o5
o2
n589
v588
n2
o5
o2
n590
v589
n2
o5
o2
n591
v590
n2
o5
o2
n592
v591
n2
o5
o2
n593
v592
n2
o5
o2
n594
v593
n2
o5
o2
n595
v594
n2
o5
o2
n596
v595
n2
o5
o2
n597
v596
n2
o5
o2
n598
v597
n2
o5
o2
n599
v598
n2
o5
o2
n600
v599
n2
o5
o2
n601
v600
n2
o5
o2
n602
v601
n2
o5
o2
n603
v602
n2
o5
o2
n604
v603
n2
o5
o2
n605
v604
n2
o5
o2
n606
v605
n2
o5
o2
n607
v606
n2
o5
o2
n608
v607
n2
o5
o2
n609
v608
n2
o5
o2
n610
v609
n2
o5
o2
n611
v610
n2
o5
o2
n612
v611
n2
o5
o2
n613
v612
n2
o5
o2
n614
v613
n2
o5
o2
n615
v614
n2
o5
o2
n616
v615
n2
o5
o2
n617
v616
n2
o5
o2
n618
v617
n2
o5
o2
n619
v618
n2
o5
o2
n620
v619
n2
o5
o2
n621
v620
n2
o5
o2
n622
v621
n2
o5
o2
n623
v622
n2
o5
o2
n624
v623
n2
o5
o2
n625
v624
n2
o5
o2
n626
v625
n2
o5
o2
n627
v626
n2
o5
o2
n628
v627
n2
o5
o2
n629
v628
n2
o5
o2
n630
v629
n2
o5
o2
n631
v630
n2
o5
o2
n632
v631
n2
o5
o2
n633
v632
n2
o5
o2
n634
v633
n2
o5
o2
n635
v634
n2
o5
o2
n636
v635
n2
o5
o2
n637
v636
n2
o5
o2
n638
v637
n2
o5
o2
n639
v638
n2
o5
o2
n640
v639
n2
o5
o2
n641
v640
n2
o5
o2
n642
v641
n2
o5
o2
n643
v642
n2
o5
o2
n644
v643
n2
o5
o2
n645
v644
n2
o5
o2
n646
v645
n2
o5
o2
n647
v646
n2
o5
o2
n648
v647
n2
o5
o2
n649
v648
n2
o5
o2
n650
v649
n2
o5
o2
n651
v650
n2
o5
o2
n652
v651
n2
o5
o2
n653
v652
n2
o5
o2
n654
v653
n2
o5
o2
n655
v654
n2
o5
o2
n656
v655
n2
o5
o2
n657
v656
n2
o5
o2
n658
v657
n2
o5
o2
n659
v658
n2
o5
o2
n660
v659
n2
o5
o2
n661
v660
n2
o5
o2
n662
v661
n2
o5
o2
n663
v662
n2
o5
o2
n664
v663
n2
o5
o2
n665
v664
n2
o5
o2
n666
v665
n2
o5
o2
n667
v666
n2
o5
o2
n668
v667
n2
o5
o2
n669
v668
n2
o5
o2
n670
v669
n2
o5
o2
n671
v670
n2
o5
o2
n672
v671
n2
o5
o2
n673
v672
n2
o5
o2
n674
v673
n2
o5
o2
n675
v674
n2
o5
o2
n676
v675
n2
o5
o2
n677
v676
n2
o5
o2
n678
v677
n2
o5
o2
n679
v678
n2
o5
o2
n680
v679
n2
o5
o2
n681
v680
n2
o5
o2
n682
v681
n2
o5
o2
n683
v682
n2
o5
o2
n684
v683
n2
o5
o2
n685
v684
n2
o5
o2
n686
v685
n2
o5
o2
n687
v686
n2
o5
o2
n688
v687
n2
o5
o2
n689
v688
n2
o5
o2
n690
v689
n2
o5
o2
n691
v690
n2
o5
o2
n692
v691
n2
o5
o2
n693
v692
n2
o5
o2
n694
v693
n2
o5
o2
n695
v694
n2
o5
o2
n696
v695
n2
o5
o2
n697
v696
n2
o5
o2
n698
v697
n2
o5
o2
n699
v698
n2
o5
o2
n700
v699
n2
o5
o2
n701
v700
n2
o5
o2
n702
v701
n2
o5
o2
n703
v702
n2
o5
o2
n704
v703
n2
o5
o2
n705
v704
n2
o5
o2
n706
v705
n2
o5
o2
n707
v706
n2
o5
o2
n708
v707
n2
o5
o2
n709
v708
n2
o5
o2
n710
v709
n2
o5
o2
n711
v710
n2
o5
o2
n712
v711
n2
o5
o2
n713
v712
n2
o5
o2
n714
v713
n2
o5
o2
n715
v714
n2
o5
o2
n716
v715
n2
o5
o2
n717
v716
n2
o5
o2
n718
v717
n2
o5
o2
n719
v718
n2
o5
o2
n720
v719
n2
o5
o2
n721
v720
n2
o5
o2
n722
v721
n2
o5
o2
n723
v722
n2
o5
o2
n724
v723
n2
o5
o2
n725
v724
n2
o5
o2
n726
v725
n2
o5
o2
n727
v726
n2
o5
o2
n728
v727
n2
o5
o2
n729
v728
n2
o5
o2
n730
v729
n2
o5
o2
n731
v730
n2
o5
o2
n732
v731
n2
o5
o2
n733
v732
n2
o5
o2
n734
v733
n2
o5
o2
n735
v734
n2
o5
o2
n736
v735
n2
o5
o2
n737
v736
n2
o5
o2
n738
v737
n2
o5
o2
n739
v738
n2
o5
o2
n740
v739
n2
o5
o2
n741
v740
n2
o5
o2
n742
v741
n2
o5
o2
n743
v742
n2
o5
o2
n744
v743
n2
o5
o2
n745
v744
n2
o5
o2
n746
v745
n2
o5
o2
n747
v746
n2
o5
o2
n748
v747
n2
o5
o2
n749
v748
n2
o5
o2
n750
v749
n2
o5
o2
n751
v750
n2
o5
o2
n752
v751
n2
o5
o2
n753
v752
n2
o5
o2
n754
v753
n2
o5
o2
n755
v754
n2
o5
o2
n756
v755
n2
o5
o2
n757
v756
n2
o5
o2
n758
v757
n2
o5
o2
n759
v758
n2
o5
o2
n760
v759
n2
o5
o2
n761
v760
n2
o5
o2
n762
v761
n2
o5
o2
n763
v762
n2
o5
o2
n764
v763
n2
o5
o2
n765
v764
n2
o5
o2
n766
v765
n2
o5
o2
n767
v766
n2
o5
o2
n768
v767
n2
o5
o2
n769
v768
n2
o5
o2
n770
v769
n2
o5
o2
n771
v770
n2
o5
o2
n772
v771
n2
o5
o2
n773
v772
n2
o5
o2
n774
v773
n2
o5
o2
n775
v774
n2
o5
o2
n776
v775
n2
o5
o2
n777
v776
n2
o5
o2
n778
v777
n2
o5
o2
n779
v778
n2
o5
o2
n780
v779
n2
o5
o2
n781
v780
n2
o5
o2
n782
v781
n2
o5
o2
n783
v782
n2
o5
o2
n784
v783
n2
o5
o2
n785
v784
n2
o5
o2
n786
v785
n2
o5
o2
n787
v786
n2
o5
o2
n788
v787
n2
o5
o2
n789
v788
n2
o5
o2
n790
v789
n2
o5
o2
n791
v790
n2
o5
o2
n792
v791
n2
o5
o2
n793
v792
n2
o5
o2
n794
v793
n2
o5
o2
n795
v794
n2
o5
o2
n796
v795
n2
o5
o2
n797
v796
n2
o5
o2
n798
v797
n2
o5
o2
n799
v798
n2
o5
o2
n800
v799
n2
o5
o2
n801
v800
n2
o5
o2
n802
v801
n2
o5
o2
n803
v802
n2
o5
o2
n804
v803
n2
o5
o2
n805
v804
n2
o5
o2
n806
v805
n2
o5
o2
n807
v806
n2
o5
o2
n808
v807
n2
o5
o2
n809
v808
n2
o5
o2
n810
v809
n2
o5
o2
n811
v810
n2
o5
o2
n812
v811
n2
o5
o2
n813
v812
n2
o5
o2
n814
v813
n2
o5
o2
n815
v814
n2
o5
o2
n816
v815
n2
o5
o2
n817
v816
n2
o5
o2
n818
v817
n2
o5
o2
n819
v818
n2
o5
o2
n820
v819
n2
o5
o2
n821
v820
n2
o5
o2
n822
v821
n2
o5
o2
n823
v822
n2
o5
o2
n824
v823
n2
o5
o2
n825
v824
n2
o5
o2
n826
v825
n2
o5
o2
n827
v826
n2
o5
o2
n828
v827
n2
o5
o2
n829
v828
n2
o5
o2
n830
v829
n2
o5
o2
n831
v830
n2
o5
o2
n832
v831
n2
o5
o2
n833
v832
n2
o5
o2
n834
v833
n2
o5
o2
n835
v834
n2
o5
o2
n836
v835
n2
o5
o2
n837
v836
n2
o5
o2
n838
v837
n2
o5
o2
n839
v838
n2
o5
o2
n840
v839
n2
o5
o2
n841
v840
n2
o5
o2
n842
v841
n2
o5
o2
n843
v842
n2
o5
o2
n844
v843
n2
o5
o2
n845
v844
n2
o5
o2
n846
v845
n2
o5
o2
n847
v846
n2
o5
o2
n848
v847
n2
o5
o2
n849
v848
n2
o5
o2
n850
v849
n2
o5
o2
n851
v850
n2
o5
o2
n852
v851
n2
o5
o2
n853
v852
n2
o5
o2
n854
v853
n2
o5
o2
n855
v854
n2
o5
o2
n856
v855
n2
o5
o2
n857
v856
n2
o5
o2
n858
v857
n2
o5
o2
n859
v858
n2
o5
o2
n860
v859
n2
o5
o2
n861
v860
n2
o5
o2
n862
v861
n2
o5
o2
n863
v862
n2
o5
o2
n864
v863
n2
o5
o2
n865
v864
n2
o5
o2
n866
v865
n2
o5
o2
n867
v866
n2
o5
o2
n868
v867
n2
o5
o2
n869
v868
n2
o5
o2
n870
v869
n2
o5
o2
n871
v870
n2
o5
o2
n872
v871
n2
o5
o2
n873
v872
n2
o5
o2
n874
v873
n2
o5
o2
n875
v874
n2
o5
o2
n876
v875
n2
o5
o2
n877
v876
n2
o5
o2
n878
v877
n2
o5
o2
n879
v878
n2
o5
o2
n880
v879
n2
o5
o2
n881
v880
n2
o5
o2
n882
v881
n2
o5
o2
n883
v882
n2
o5
o2
n884
v883
n2
o5
o2
n885
v884
n2
o5
o2
n886
v885
n2
o5
o2
n887
v886
n2
o5
o2
n888
v887
n2
o5
o2
n889
v888
n2
o5
o2
n890
v889
n2
o5
o2
n891
v890
n2
o5
o2
n892
v891
n2
o5
o2
n893
v892
n2
o5
o2
n894
v893
n2
o5
o2
n895
v894
n2
o5
o2
n896
v895
n2
o5
o2
n897
v896
n2
o5
o2
n898
v897
n2
o5
o2
n899
v898
n2
o5
o2
n900
v899
n2
o5
o2
n901
v900
n2
o5
o2
n902
v901
n2
o5
o2
n903
v902
n2
o5
o2
n904
v903
n2
o5
o2
n905
v904
n2
o5
o2
n906
v905
n2
o5
o2
n907
v906
n2
o5
o2
n908
v907
n2
o5
o2
n909
v908
n2
o5
o2
n910
v909
n2
o5
o2
n911
v910
n2
o5
o2
n912
v911
n2
o5
o2
n913
v912
n2
o5
o2
n914
v913
n2
o5
o2
n915
v914
n2
o5
o2
n916
v915
n2
o5
o2
n917
v916
n2
o5
o2
n918
v917
n2
o5
o2
n919
v918
n2
o5
o2
n920
v919
n2
o5
o2
n921
v920
n2
o5
o2
n922
v921
n2
o5
o2
n923
v922
n2
o5
o2
n924
v923
n2
o5
o2
n925
v924
n2
o5
o2
n926
v925
n2
o5
o2
n927
v926
n2
o5
o2
n928
v927
n2
o5
o2
n929
v928
n2
o5
o2
n930
v929
n2
o5
o2
n931
v930
n2
o5
o2
n932
v931
n2
o5
o2
n933
v932
n2
o5
o2
n934
v933
n2
o5
o2
n935
v934
n2
o5
o2
n936
v935
n2
o5
o2
n937
v936
n2
o5
o2
n938
v937
n2
o5
o2
n939
v938
n2
o5
o2
n940
v939
n2
o5
o2
n941
v940
n2
o5
o2
n942
v941
n2
o5
o2
n943
v942
n2
o5
o2
n944
v943
n2
o5
o2
n945
v944
n2
o5
o2
n946
v945
n2
o5
o2
n947
v946
n2
o5
o2
n948
v947
n2
o5
o2
n949
v948
n2
o5
o2
n950
v949
n2
o5
o2
n951
v950
n2
o5
o2
n952
v951
n2
o5
o2
n953
v952
n2
o5
o2
n954
v953
n2
o5
o2
n955
v954
n2
o5
o2
n956
v955
n2
o5
o2
n957
v956
n2
o5
o2
n958
v957
n2
o5
o2
n959
v958
n2
o5
o2
n960
v959
n2
o5
o2
n961
v960
n2
o5
o2
n962
v961
n2
o5
o2
n963
v962
n2
o5
o2
n964
v963
n2
o5
o2
n965
v964
n2
o5
o2
n966
v965
n2
o5
o2
n967
v966
n2
o5
o2
n968
v967
n2
o5
o2
n969
v968
n2
o5
o2
n970
v969
n2
o5
o2
n971
v970
n2
o5
o2
n972
v971
n2
o5
o2
n973
v972
n2
o5
o2
n974
v973
n2
o5
o2
n975
v974
n2
o5
o2
n976
v975
n2
o5
o2
n977
v976
n2
o5
o2
n978
v977
n2
o5
o2
n979
v978
n2
o5
o2
n980
v979
n2
o5
o2
n981
v980
n2
o5
o2
n982
v981
n2
o5
o2
n983
v982
n2
o5
o2
n984
v983
n2
o5
o2
n985
v984
n2
o5
o2
n986
v985
n2
o5
o2
n987
v986
n2
o5
o2
n988
v987
n2
o5
o2
n989
v988
n2
o5
o2
n990
v989
n2
o5
o2
n991
v990
n2
o5
o2
n992
v991
n2
o5
o2
n993
v992
n2
o5
o2
n994
v993
n2
o5
o2
n995
v994
n2
o5
o2
n996
v995
n2
o5
o2
n997
v996
n2
o5
o2
n998
v997
n2
o5
o2
n999
v998
n2
o5
o2
n1000
v999
n2
k999
0
0
0
0
0
0
0
0
0
0
0
0
0
0
0
0
0
0
0
0
0
0
0
0
0
0
0
0
0
0
0
0
0
0
0
0
0
0
0
0
0
0
0
0
0
0
0
0
0
0
0
0
0
0
0
0
0
0
0
0
0
0
0
0
0
0
0
0
0
0
0
0
0
0
0
0
0
0
0
0
0
0
0
0
0
0
0
0
0
0
0
0
0
0
0
0
0
0
0
0
0
0
0
0
0
0
0
0
0
0
0
0
0
0
0
0
0
0
0
0
0
0
0
0
0
0
0
0
0
0
0
0
0
0
0
0
0
0
0
0
0
0
0
0
0
0
0
0
0
0
0
0
0
0
0
0
0
0
0
0
0
0
0
0
0
0
0
0
0
0
0
0
0
0
0
0
0
0
0
0
0
0
0
0
0
0
0
0
0
0
0
0
0
0
0
0
0
0
0
0
0
0
0
0
0
0
0
0
0
0
0
0
0
0
0
0
0
0
0
0
0
0
0
0
0
0
0
0
0
0
0
0
0
0
0
0
0
0
0
0
0
0
0
0
0
0
0
0
0
0
0
0
0
0
0
0
0
0
0
0
0
0
0
0
0
0
0
0
0
0
0
0
0
0
0
0
0
0
0
0
0
0
0
0
0
0
0
0
0
0
0
0
0
0
0
0
0
0
0
0
0
0
0
0
0
0
0
0
0
0
0
0
0
0
0
0
0
0
0
0
0
0
0
0
0
0
0
0
0
0
0
0
0
0
0
0
0
0
0
0
0
0
0
0
0
0
0
0
0
0
0
0
0
0
0
0
0
0
0
0
0
0
0
0
0
0
0
0
0
0
0
0
0
0
0
0
0
0
0
0
0
0
0
0
0
0
0
0
0
0
0
0
0
0
0
0
0
0
0
0
0
0
0
0
0
0
0
0
0
0
0
0
0
0
0
0
0
0
0
0
0
0
0
0
0
0
0
0
0
0
0
0
0
0
0
0
0
0
0
0
0
0
0
0
0
0
0
0
0
0
0
0
0
0
0
0
0
0
0
0
0
0
0
0
0
0
0
0
0
0
0
0
0
0
0
0
0
0
0
0
0
0
0
0
0
0
0
0
0
0
0
0
0
0
0
0
0
0
0
0
0
0
0
0
0
0
0
0
0
0
0
0
0
0
0
0
0
0
0
0
0
0
0
0
0
0
0
0
0
0
0
0
0
0
0
0
0
0
0
0
0
0
0
0
0
0
0
0
0
0
0
0
0
0
0
0
0
0
0
0
0
0
0
0
0
0
0
0
0
0
0
0
0
0
0
0
0
0
0
0
0
0
0
0
0
0
0
0
0
0
0
0
0
0
0
0
0
0
0
0
0
0
0
0
0
0
0
0
0
0
0
0
0
0
0
0
0
0
0
0
0
0
0
0
0
0
0
0
0
0
0
0
0
0
0
0
0
0
0
0
0
0
0
0
0
0
0
0
0
0
0
0
0
0
0
0
0
0
0
0
0
0
0
0
0
0
0
0
0
0
0
0
0
0
0
0
0
0
0
0
0
0
0
0
0
0
0
0
0
0
0
0
0
0
0
0
0
0
0
0
0
0
0
0
0
0
0
0
0
0
0
0
0
0
0
0
0
0
0
0
0
0
0
0
0
0
0
0
0
0
0
0
0
0
0
0
0
0
0
0
0
0
0
0
0
0
0
0
0
0
0
0
0
0
0
0
0
0
0
0
0
0
0
0
0
0
0
0
0
0
0
0
0
0
0
0
0
0
0
0
0
0
0
0
0
0
0
0
0
0
0
0
0
0
0
0
0
0
0
0
0
0
0
0
0
0
0
0
0
0
0
0
0
0
0
0
0
0
0
0
0
0
0
0
0
0
0
0
0
0
0
0
0
0
0
0
0
0
0
0
0
0
0
0
0
0
0
0
0
0
0
0
0
0
0
0
0
0
0
0
0
0
0
0
0
0
0
0
0
0
0
0
0
0
0
0
0
0
0
0
0
0
0
0
0
0
0
0
0
0
0
0
0
0
0
0
0
0
0
0
0
0
0
0
0
0
0
0
0
0
0
0
0
0
0
0
0
0
0
0
0
0
0
0
0
0
0
0
0
0
0
0
0
0
0
0
0
0
0
0
0
0
0
0
0
0
0
0
0
0
0
0
0
0
0
0
0
0
0
0
0
0
0
0
0
0
0
0
0
0
0
0
0
0
0
0
0
0
0
0
0
0
0
0
0
0
0
0
0
0
0
0
0
0
0
0
0
0
0
G0 1000
0 0
1 0
2 0
3 0
4 0
5 0
6 0
7 0
8 0
9 0
10 0
11 0
12 0
13 0
14 0
15 0
16 0
17 0
18 0
19 0
20 0
21 0
22 0
23 0
24 0
25 0
26 0
27 0
28 0
29 0
30 0
31 0
32 0
33 0
34 0
35 0
36 0
37 0
38 0
39 0
40 0
41 0
42 0
43 0
44 0
45 0
46 0
47 0
48 0
49 0
50 0
51 0
52 0
53 0
54 0
55 0
56 0
57 0
58 0
59 0
60 0
61 0
62 0
63 0
64 0
65 0
66 0
67 0
68 0
69 0
70 0
71 0
72 0
73 0
74 0
75 0
76 0
77 0
78 0
79 0
80 0
81 0
82 0
83 0
84 0
85 0
86 0
87 0
88 0
89 0
90 0
91 0
92 0
93 0
94 0
95 0
96 0
97 0
98 0
99 0
100 0
101 0
102 0
103 0
104 0
105 0
106 0
107 0
108 0
109 0
110 0
111 0
112 0
113 0
114 0
115 0
116 0
117 0
118 0
119 0
120 0
121 0
122 0
123 0
124 0
125 0
126 0
127 0
128 0
129 0
130 0
131 0
132 0
133 0
134 0
135 0
136 0
137 0
138 0
139 0
140 0
141 0
142 0
143 0
144 0
145 0
146 0
147 0
148 0
149 0
150 0
151 0
152 0
153 0
154 0
155 0
156 0
157 0
158 0
159 0
160 0
161 0
162 0
163 0
164 0
165 0
166 0
167 0
168 0
169 0
170 0
171 0
172 0
173 0
174 0
175 0
176 0
177 0
178 0
179 0
180 0
181 0
182 0
183 0
184 0
185 0
186 0
187 0
188 0
189 0
190 0
191 0
192 0
193 0
194 0
195 0
196 0
197 0
198 0
199 0
200 0
201 0
202 0
203 0
204 0
205 0
206 0
207 0
208 0
209 0
210 0
211 0
212 0
213 0
214 0
215 0
216 0
217 0
218 0
219 0
220 0
221 0
222 0
223 0
224 0
225 0
226 0
227 0
228 0
229 0
230 0
231 0
232 0
233 0
234 0
235 0
236 0
237 0
238 0
239 0
240 0
241 0
242 0
243 0
244 0
245 0
246 0
247 0
248 0
249 0
250 0
251 0
252 0
253 0
254 0
255 0
256 0
257 0
258 0
259 0
260 0
261 0
262 0
263 0
264 0
265 0
266 0
267 0
268 0
269 0
270 0
271 0
272 0
273 0
274 0
275 0
276 0
277 0
278 0
279 0
280 0
281 0
282 0
283 0
284 0
285 0
286 0
287 0
288 0
289 0
290 0
291 0
292 0
293 0
294 0
295 0
296 0
297 0
298 0
299 0
300 0
301 0
302 0
303 0
304 0
305 0
306 0
307 0
308 0
309 0
310 0
311 0
312 0
313 0
314 0
315 0
316 0
317 0
318 0
319 0
320 0
321 0
322 0
323 0
324 0
325 0
326 0
327 0
328 0
329 0
330 0
331 0
332 0
333 0
334 0
335 0
336 0
337 0
338 0
339 0
340 0
341 0
342 0
343 0
344 0
345 0
346 0
347 0
348 0
349 0
350 0
351 0
352 0
353 0
354 0
355 0
356 0
357 0
358 0
359 0
360 0
361 0
362 0
363 0
364 0
365 0
366 0
367 0
368 0
369 0
370 0
371 0
372 0
373 0
374 0
375 0
376 0
377 0
378 0
379 0
380 0
381 0
382 0
383 0
384 0
385 0
386 0
387 0
388 0
389 0
390 0
391 0
392 0
393 0
394 0
395 0
396 0
397 0
398 0
399 0
400 0
401 0
402 0
403 0
404 0
405 0
406 0
407 0
408 0
409 0
410 0
411 0
412 0
413 0
414 0
415 0
416 0
417 0
418 0
419 0
420 0
421 0
422 0
423 0
424 0
425 0
426 0
427 0
428 0
429 0
430 0
431 0
432 0
433 0
434 0
435 0
436 0
437 0
438 0
439 0
440 0
441 0
442 0
443 0
444 0
445 0
446 0
447 0
448 0
449 0
450 0
451 0
452 0
453 0
454 0
455 0
456 0
457 0
458 0
459 0
460 0
461 0
462 0
463 0
464 0
465 0
466 0
467 0
468 0
469 0
470 0
471 0
472 0
473 0
474 0
475 0
476 0
477 0
478 0
479 0
480 0
481 0
482 0
483 0
484 0
485 0
486 0
487 0
488 0
489 0
490 0
491 0
492 0
493 0
494 0
495 0
496 0
497 0
498 0
499 0
500 0
501 0
502 0
503 0
504 0
505 0
506 0
507 0
508 0
509 0
510 0
511 0
512 0
513 0
514 0
515 0
516 0
517 0
518 0
519 0
520 0
521 0
522 0
523 0
524 0
525 0
526 0
527 0
528 0
529 0
530 0
531 0
532 0
533 0
534 0
535 0
536 0
537 0
538 0
539 0
540 0
541 0
542 0
543 0
544 0
545 0
546 0
547 0
548 0
549 0
550 0
551 0
552 0
553 0
554 0
555 0
556 0
557 0
558 0
559 0
560 0
561 0
562 0
563 0
564 0
565 0
566 0
567 0
568 0
569 0
570 0
571 0
572 0
573 0
574 0
575 0
576 0
577 0
578 0
579 0
580 0
581 0
582 0
583 0
584 0
585 0
586 0
587 0
588 0
589 0
590 0
591 0
592 0
593 0
594 0
595 0
596 0
597 0
598 0
599 0
600 0
601 0
602 0
603 0
604 0
605 0
606 0
607 0
608 0
609 0
610 0
611 0
612 0
613 0
614 0
615 0
616 0
617 0
618 0
619 0
620 0
621 0
622 0
623 0
624 0
625 0
626 0
627 0
628 0
629 0
630 0
631 0
632 0
633 0
634 0
635 0
636 0
637 0
638 0
639 0
640 0
641 0
642 0
643 0
644 0
645 0
646 0
647 0
648 0
649 0
650 0
651 0
652 0
653 0
654 0
655 0
656 0
657 0
658 0
659 0
660 0
661 0
662 0
663 0
664 0
665 0
666 0
667 0
668 0
669 0
670 0
671 0
672 0
673 0
674 0
675 0
676 0
677 0
678 0
679 0
680 0
681 0
682 0
683 0
684 0
685 0
686 0
687 0
688 0
689 0
690 0
691 0
692 0
693 0
694 0
695 0
696 0
697 0
698 0
699 0
700 0
701 0
702 0
703 0
704 0
705 0
706 0
707 0
708 0
709 0
710 0
711 0
712 0
713 0
714 0
715 0
716 0
717 0
718 0
719 0
720 0
721 0
722 0
723 0
724 0
725 0
726 0
727 0
728 0
729 0
730 0
731 0
732 0
733 0
734 0
735 0
736 0
737 0
738 0
739 0
740 0
741 0
742 0
743 0
744 0
745 0
746 0
747 0
748 0
749 0
750 0
751 0
752 0
753 0
754 0
755 0
756 0
757 0
758 0
759 0
760 0
761 0
762 0
763 0
764 0
765 0
766 0
767 0
768 0
769 0
770 0
771 0
772 0
773 0
774 0
775 0
776 0
777 0
778 0
779 0
780 0
781 0
782 0
783 0
784 0
785 0
786 0
787 0
788 0
789 0
790 0
791 0
792 0
793 0
794 0
795 0
796 0
797 0
798 0
799 0
800 0
801 0
802 0
803 0
804 0
805 0
806 0
807 0
808 0
809 0
810 0
811 0
812 0
813 0
814 0
815 0
816 0
817 0
818 0
819 0
820 0
821 0
822 0
823 0
824 0
825 0
826 0
827 0
828 0
829 0
830 0
831 0
832 0
833 0
834 0
835 0
836 0
837 0
838 0
839 0
840 0
841 0
842 0
843 0
844 0
845 0
846 0
847 0
848 0
849 0
850 0
851 0
852 0
853 0
854 0
855 0
856 0
857 0
858 0
859 0
860 0
861 0
862 0
863 0
864 0
865 0
866 0
867 0
868 0
869 0
870 0
871 0
872 0
873 0
874 0
875 0
876 0
877 0
878 0
879 0
880 0
881 0
882 0
883 0
884 0
885 0
886 0
887 0
888 0
889 0
890 0
891 0
892 0
893 0
894 0
895 0
896 0
897 0
898 0
899 0
900 0
901 0
902 0
903 0
904 0
905 0
906 0
907 0
908 0
909 0
910 0
911 0
912 0
913 0
914 0
915 0
916 0
917 0
918 0
919 0
920 0
921 0
922 0
923 0
924 0
925 0
926 0
927 0
928 0
929 0
930 0
931 0
932 0
933 0
934 0
935 0
936 0
937 0
938 0
939 0
940 0
941 0
942 0
943 0
944 0
945 0
946 0
947 0
948 0
949 0
950 0
951 0
952 0
953 0
954 0
955 0
956 0
957 0
958 0
959 0
960 0
961 0
962 0
963 0
964 0
965 0
966 0
967 0
968 0
969 0
970 0
971 0
972 0
973 0
974 0
975 0
976 0
977 0
978 0
979 0
980 0
981 0
982 0
983 0
984 0
985 0
986 0
987 0
988 0
989 0
990 0
991 0
992 0
993 0
994 0
995 0
996 0
997 0
998 0
999 0
